
Gurobi 9.1.2 (win64) logging started Mon Aug 30 01:56:52 2021

Changed value of parameter LogFile to ../results/logs/log_samuel_kroger_2021_08_29_22_43_43.csv_5_250.log
   Prev:   Default: 
Changed value of parameter method to 3
   Prev: -1  Min: -1  Max: 5  Default: -1
